<number of tasks>
100

<cycle time>
1000

<order strength>
0.598


<task times>
1 135
2 153
3 208
4 144
5 183
6 119
7 69
8 146
9 77
10 146
11 35
12 185
13 178
14 49
15 199
16 164
17 137
18 82
19 79
20 207
21 185
22 186
23 311
24 46
25 66
26 333
27 222
28 122
29 183
30 34
31 88
32 173
33 34
34 122
35 78
36 142
37 146
38 52
39 84
40 35
41 140
42 393
43 34
44 35
45 302
46 48
47 195
48 300
49 103
50 42
51 312
52 110
53 172
54 196
55 77
56 38
57 38
58 137
59 118
60 105
61 179
62 58
63 184
64 121
65 144
66 29
67 93
68 131
69 157
70 50
71 69
72 47
73 289
74 151
75 53
76 61
77 78
78 109
79 71
80 291
81 134
82 67
83 84
84 77
85 160
86 69
87 73
88 100
89 149
90 43
91 119
92 172
93 71
94 248
95 154
96 40
97 91
98 56
99 106
100 35

<precedence relations>
1,5
2,6
2,9
3,7
3,8
3,18
4,10
4,11
5,12
6,14
7,15
8,13
8,17
8,19
8,20
9,16
9,29
9,31
10,17
10,18
10,19
10,20
11,17
11,18
11,19
11,20
12,22
13,23
14,25
15,25
16,24
17,21
17,25
18,25
19,47
20,27
20,28
20,32
21,26
22,27
23,28
24,27
25,27
25,28
25,29
25,30
25,31
25,32
26,33
27,34
27,36
27,37
28,36
28,37
29,35
29,36
29,37
29,38
30,36
30,37
30,38
31,36
31,37
31,38
32,36
32,37
32,38
33,40
34,39
35,41
36,42
36,43
36,46
37,42
37,43
37,46
38,47
39,46
40,44
41,45
42,49
42,50
42,74
43,47
43,48
44,49
45,49
46,73
47,50
47,51
47,52
48,56
48,74
49,70
49,77
49,78
50,55
50,64
50,83
51,53
51,54
52,55
52,56
52,74
53,57
53,59
53,60
53,61
53,65
54,58
54,69
55,60
55,63
56,62
56,63
56,64
56,73
57,66
58,67
59,68
60,73
61,69
61,70
61,85
62,70
62,84
63,93
64,84
64,99
65,74
66,71
67,72
68,73
69,74
70,93
71,75
72,76
73,78
74,77
75,79
76,80
77,81
77,83
77,99
78,82
78,84
78,85
79,88
80,89
81,91
82,86
82,87
83,90
83,92
84,100
85,93
86,94
87,95
88,96
89,99
90,97
91,98
92,100

<end>
